p edge 58 502
e 1 2
e 1 5
e 1 8
e 1 9
e 1 10
e 1 16
e 1 17
e 1 21
e 1 22
e 1 26
e 1 27
e 1 28
e 1 31
e 1 38
e 1 43
e 1 44
e 1 47
e 1 53
e 1 54
e 2 4
e 2 10
e 2 11
e 2 14
e 2 27
e 2 30
e 2 34
e 2 36
e 2 38
e 2 42
e 2 47
e 2 49
e 2 50
e 2 54
e 2 57
e 3 8
e 3 11
e 3 16
e 3 17
e 3 25
e 3 27
e 3 29
e 3 30
e 3 31
e 3 32
e 3 49
e 3 50
e 3 54
e 3 56
e 4 17
e 4 18
e 4 21
e 4 23
e 4 29
e 4 33
e 4 35
e 4 37
e 4 38
e 4 40
e 4 45
e 4 47
e 4 52
e 5 6
e 5 10
e 5 11
e 5 13
e 5 16
e 5 18
e 5 24
e 5 26
e 5 31
e 5 32
e 5 33
e 5 35
e 5 36
e 5 37
e 5 38
e 5 39
e 5 45
e 5 47
e 5 48
e 5 49
e 6 9
e 6 13
e 6 18
e 6 19
e 6 24
e 6 25
e 6 30
e 6 31
e 6 32
e 6 33
e 6 36
e 6 37
e 6 41
e 6 42
e 6 47
e 6 48
e 6 51
e 6 58
e 7 9
e 7 10
e 7 13
e 7 14
e 7 15
e 7 32
e 7 33
e 7 35
e 7 38
e 7 47
e 7 50
e 7 57
e 8 11
e 8 12
e 8 15
e 8 16
e 8 17
e 8 19
e 8 21
e 8 22
e 8 23
e 8 32
e 8 34
e 8 38
e 8 40
e 8 41
e 8 42
e 8 44
e 8 45
e 8 46
e 8 50
e 8 53
e 8 55
e 8 56
e 8 58
e 9 11
e 9 14
e 9 19
e 9 23
e 9 24
e 9 25
e 9 26
e 9 27
e 9 29
e 9 44
e 9 45
e 9 46
e 9 49
e 9 51
e 10 11
e 10 12
e 10 13
e 10 14
e 10 20
e 10 22
e 10 23
e 10 25
e 10 26
e 10 28
e 10 34
e 10 36
e 10 38
e 10 43
e 10 45
e 10 46
e 10 48
e 10 51
e 10 53
e 10 54
e 10 57
e 11 12
e 11 14
e 11 15
e 11 17
e 11 26
e 11 28
e 11 34
e 11 36
e 11 43
e 11 44
e 11 45
e 11 48
e 11 52
e 11 55
e 11 58
e 12 14
e 12 21
e 12 22
e 12 23
e 12 25
e 12 28
e 12 33
e 12 36
e 12 48
e 12 49
e 12 52
e 12 53
e 13 14
e 13 17
e 13 19
e 13 21
e 13 31
e 13 32
e 13 33
e 13 35
e 13 39
e 13 40
e 13 41
e 13 42
e 13 45
e 13 47
e 13 48
e 13 51
e 14 18
e 14 19
e 14 20
e 14 21
e 14 22
e 14 24
e 14 26
e 14 30
e 14 33
e 14 34
e 14 41
e 14 42
e 14 46
e 14 47
e 14 53
e 14 57
e 15 16
e 15 19
e 15 30
e 15 34
e 15 35
e 15 41
e 15 51
e 15 52
e 15 55
e 15 58
e 16 17
e 16 18
e 16 23
e 16 26
e 16 28
e 16 32
e 16 37
e 16 44
e 16 45
e 16 48
e 16 51
e 17 22
e 17 24
e 17 30
e 17 31
e 17 33
e 17 34
e 17 50
e 17 51
e 17 55
e 17 56
e 18 21
e 18 25
e 18 28
e 18 29
e 18 33
e 18 35
e 18 36
e 18 37
e 18 39
e 18 41
e 18 44
e 18 51
e 18 56
e 19 22
e 19 24
e 19 27
e 19 28
e 19 31
e 19 37
e 19 40
e 19 41
e 19 51
e 19 55
e 20 26
e 20 34
e 20 35
e 20 40
e 20 41
e 20 43
e 20 47
e 20 51
e 20 55
e 20 58
e 21 27
e 21 28
e 21 34
e 21 38
e 21 39
e 21 43
e 21 45
e 21 46
e 21 53
e 21 57
e 21 58
e 22 29
e 22 32
e 22 33
e 22 39
e 22 42
e 22 49
e 22 52
e 22 54
e 23 25
e 23 26
e 23 27
e 23 28
e 23 30
e 23 32
e 23 37
e 23 39
e 23 42
e 23 49
e 23 50
e 23 52
e 23 53
e 23 54
e 24 26
e 24 30
e 24 32
e 24 33
e 24 39
e 24 40
e 24 49
e 24 57
e 25 26
e 25 27
e 25 28
e 25 30
e 25 34
e 25 36
e 25 39
e 25 44
e 25 47
e 25 49
e 25 52
e 25 56
e 26 27
e 26 28
e 26 37
e 26 38
e 26 43
e 26 46
e 26 48
e 26 53
e 26 55
e 27 37
e 27 40
e 27 41
e 27 42
e 27 46
e 27 50
e 27 52
e 27 55
e 27 56
e 27 57
e 28 35
e 28 42
e 28 49
e 28 53
e 28 54
e 28 57
e 29 35
e 29 42
e 29 43
e 29 45
e 29 46
e 29 53
e 29 54
e 30 31
e 30 33
e 30 37
e 30 43
e 30 46
e 30 47
e 30 48
e 30 49
e 30 53
e 30 54
e 30 57
e 30 58
e 31 33
e 31 34
e 31 37
e 31 39
e 31 42
e 31 49
e 31 50
e 31 53
e 31 56
e 31 57
e 32 36
e 32 41
e 32 44
e 32 48
e 32 56
e 33 35
e 33 36
e 33 39
e 33 40
e 33 42
e 33 44
e 33 45
e 33 46
e 33 48
e 33 53
e 33 55
e 33 56
e 34 37
e 34 39
e 34 40
e 34 48
e 34 50
e 34 52
e 34 56
e 34 57
e 35 37
e 35 38
e 35 44
e 35 46
e 35 52
e 35 54
e 35 55
e 35 56
e 35 57
e 36 44
e 36 51
e 36 52
e 36 57
e 36 58
e 37 41
e 37 45
e 37 47
e 37 49
e 37 53
e 37 56
e 38 41
e 38 42
e 38 47
e 38 49
e 38 50
e 38 56
e 38 57
e 38 58
e 39 42
e 39 44
e 39 48
e 39 55
e 39 58
e 40 45
e 40 47
e 40 49
e 40 50
e 40 51
e 40 57
e 41 46
e 41 48
e 41 55
e 41 57
e 42 43
e 42 45
e 42 48
e 42 52
e 42 55
e 42 58
e 43 55
e 43 57
e 43 58
e 44 45
e 44 51
e 44 57
e 45 47
e 45 51
e 45 53
e 45 55
e 45 57
e 45 58
e 46 49
e 46 56
e 47 52
e 47 54
e 47 55
e 48 51
e 48 52
e 49 50
e 50 51
e 50 52
e 50 55
e 50 57
e 50 58
e 51 53
e 51 55
e 55 56
e 55 58
